p edge 40 84
e 1 2
e 1 10
e 1 21
e 1 29
e 1 30
e 2 3
e 2 13
e 2 25
e 2 28
e 2 30
e 2 37
e 2 38
e 3 18
e 4 7
e 4 8
e 4 20
e 4 26
e 4 34
e 4 39
e 5 29
e 6 29
e 7 40
e 8 10
e 8 18
e 8 20
e 8 26
e 8 29
e 9 20
e 9 23
e 9 37
e 9 40
e 10 11
e 10 13
e 10 28
e 10 30
e 10 32
e 12 20
e 12 36
e 12 39
e 13 20
e 13 26
e 13 38
e 14 32
e 15 27
e 15 33
e 15 36
e 15 38
e 16 17
e 16 22
e 17 26
e 17 29
e 17 30
e 17 38
e 18 19
e 18 21
e 19 35
e 19 39
e 20 31
e 20 34
e 20 35
e 21 23
e 21 24
e 21 37
e 22 29
e 23 25
e 24 27
e 24 28
e 24 37
e 25 32
e 26 28
e 27 31
e 28 31
e 28 35
e 28 36
e 29 34
e 29 36
e 29 37
e 30 36
e 30 37
e 33 37
e 34 36
e 34 37
e 35 37
e 36 40
